100
1000
165
165
162
159
156
155
155
154
152
151
150
150
149
149
148
147
146
145
145
144
143
143
142
141
141
138
134
134
133
132
131
128
127
126
125
124
123
122
121
121
121
120
119
114
114
112
112
110
109
108
107
107
107
106
102
102
99
99
98
97
97
95
95
95
94
94
93
93
92
91
90
88
87
87
86
83
82
80
80
79
78
77
76
76
70
69
68
68
68
66
65
62
61
60
60
59
58
58
58
57
